<number of tasks>
20

<cycle time>
1000

<order strength>
0,505


<task times>
1 241
2 197
3 133
4 91
5 83
6 173
7 57
8 187
9 59
10 310
11 108
12 84
13 177
14 108
15 258
16 190
17 71
18 141
19 239
20 59

<precedence relations>
1,6
2,20
3,7
3,10
3,12
4,5
4,8
5,9
6,9
6,11
7,11
7,13
8,10
8,11
8,20
9,12
9,13
9,17
9,18
10,13
10,18
11,14
12,16
14,15
15,17
15,18
15,19
16,20

<end>
